
List of user-set options:

                                    Name   Value                used
                           linear_solver = mumps                 yes
                  ma57_automatic_scaling = yes                    no
                                max_iter = 10000                 yes
                             mu_strategy = adaptive              yes
                             output_file = DynamicOptimization_FtildeState_actdyn_GPOPS_IPOPTinfo.txt  yes
                             print_level = 5                     yes
                      print_user_options = yes                   yes
                                     tol = 1e-006                yes
This is Ipopt version 3.11.0, running with linear solver mumps.

Number of nonzeros in equality constraint Jacobian...:   254728
Number of nonzeros in inequality constraint Jacobian.:    48160
Number of nonzeros in Lagrangian Hessian.............:    85374

Total number of variables............................:    49470
                     variables with only lower bounds:        0
                variables with lower and upper bounds:    49470
                     variables with only upper bounds:        0
Total number of equality constraints.................:    37387
Total number of inequality constraints...............:    24081
        inequality constraints with only lower bounds:    11997
   inequality constraints with lower and upper bounds:       87
        inequality constraints with only upper bounds:    11997

iter    objective    inf_pr   inf_du lg(mu)  ||d||  lg(rg) alpha_du alpha_pr  ls
   0 9.9999900e-003 6.93e+002 1.00e+000   0.0 0.00e+000    -  0.00e+000 0.00e+000   0
   1 2.1780354e+000 1.89e+003 9.89e+002  -0.1 9.48e+000    -  6.17e-003 8.76e-001f  1
   2 2.3893352e+002 6.63e+002 3.20e+002   0.4 2.72e+002    -  6.59e-001 8.72e-001f  1
   3 2.4403263e+002 5.22e+002 7.80e+003   0.2 2.42e+001   2.0 6.94e-001 2.10e-001h  1
   4 2.4735318e+002 4.32e+002 6.40e+003   0.1 1.92e+001   2.4 9.93e-001 1.73e-001h  1
   5 2.5908592e+002 1.19e+002 1.02e+004   0.4 1.60e+001   2.9 1.00e+000 7.35e-001h  1
   6 2.6079908e+002 7.25e+001 8.63e+003  -0.6 4.49e+000   3.3 1.00e+000 3.81e-001h  1
   7 2.6214072e+002 3.72e+001 5.36e+003  -2.2 2.82e+000   2.8 1.00e+000 4.77e-001h  1
   8 2.6230489e+002 3.31e+001 4.81e+003  -3.1 1.50e+000   2.3 1.00e+000 1.10e-001h  1
   9 2.6249665e+002 2.83e+001 4.22e+003  -4.6 1.32e+000   2.7 1.00e+000 1.45e-001h  1
iter    objective    inf_pr   inf_du lg(mu)  ||d||  lg(rg) alpha_du alpha_pr  ls
  10 2.6291270e+002 1.74e+001 2.76e+003  -2.7 1.14e+000   2.3 1.00e+000 3.65e-001h  1
  11 2.6341008e+002 4.76e+000 1.12e+003  -3.6 7.18e-001   2.7 1.00e+000 6.92e-001h  1
  12 2.6346386e+002 3.60e+000 3.08e+003  -3.6 2.20e-001   2.2 1.00e+000 2.44e-001h  1
  13 2.6362635e+002 6.97e-002 3.48e+001  -9.6 1.62e-001   1.7 8.89e-001 1.00e+000h  1
  14 2.6360545e+002 6.35e-004 6.40e-001  -3.4 2.09e-002   1.3 9.88e-001 1.00e+000f  1
  15 2.6354211e+002 1.91e-004 3.91e-001  -5.2 6.33e-002   0.8 1.00e+000 1.00e+000f  1
  16 2.6336297e+002 1.51e-003 3.90e-001  -7.1 1.90e-001   0.3 1.00e+000 9.43e-001f  1
  17 2.6302640e+002 5.57e-003 3.90e-001  -7.6 5.68e-001  -0.2 1.00e+000 5.92e-001f  1
  18 2.6132853e+002 8.90e-002 3.88e-001  -7.0 1.70e+000  -0.6 1.00e+000 1.00e+000f  1
  19 2.6104361e+002 8.47e-002 3.87e-001  -5.7 5.01e+000  -1.1 1.00e+000 5.69e-002f  1
iter    objective    inf_pr   inf_du lg(mu)  ||d||  lg(rg) alpha_du alpha_pr  ls
  20 2.4638147e+002 5.30e+000 3.72e-001  -5.4 1.47e+001  -1.6 1.00e+000 1.00e+000f  1
  21 2.4314966e+002 2.13e+000 3.49e-001  -3.4 4.97e+000  -1.2 1.00e+000 6.51e-001f  1
  22 2.3791388e+002 5.97e+000 3.44e-001  -3.4 1.49e+001  -1.6 1.00e+000 3.52e-001f  1
  23 2.3257142e+002 6.57e+000 3.31e-001  -4.5 5.50e+000  -1.2 1.00e+000 9.71e-001f  1
  24 2.3055912e+002 1.71e+000 3.23e-001  -4.0 2.01e+000  -0.8 1.00e+000 1.00e+000f  1
  25 2.2895083e+002 5.00e+000 3.23e-001  -5.2 6.03e+000  -1.3 1.00e+000 2.67e-001f  1
  26 2.2799008e+002 4.09e+000 3.22e-001  -3.9 2.25e+000  -0.8 1.00e+000 4.27e-001f  1
  27 2.2671166e+002 1.58e+001 3.21e-001  -4.6 6.68e+000  -1.3 1.00e+000 1.91e-001f  1
  28 2.2420307e+002 2.74e+001 3.18e-001  -4.8 2.51e+000  -0.9 1.00e+000 1.00e+000f  1
  29 2.1984815e+002 6.40e+001 3.12e-001  -3.3 7.30e+000  -1.4 9.46e-001 5.97e-001f  1
iter    objective    inf_pr   inf_du lg(mu)  ||d||  lg(rg) alpha_du alpha_pr  ls
  30 2.0804659e+002 1.31e+002 8.08e-001  -2.2 1.95e+001  -1.9 5.93e-001 6.06e-001f  1
  31 1.8166123e+002 4.29e+002 6.78e+000  -1.5 3.98e+001  -2.3 4.77e-002 6.63e-001f  1
  32 1.4870199e+002 3.82e+002 2.73e+000  -2.0 8.58e+001  -2.8 9.70e-001 3.84e-001f  1
  33 1.0380851e+002 2.92e+002 1.57e+000  -2.0 1.06e+002  -3.3 4.02e-001 4.22e-001f  1
  34 7.8035511e+001 6.37e+001 4.98e-001  -2.0 2.80e+001  -2.9 1.00e+000 9.20e-001f  1
  35 6.3549551e+001 6.33e+001 2.99e-001  -8.0 4.08e+001  -3.3 2.68e-001 3.55e-001f  1
  36 5.1830576e+001 6.96e+001 4.70e-001  -2.4 1.17e+001  -2.9 1.00e+000 1.00e+000f  1
  37 4.8550020e+001 6.14e+001 1.37e+000  -2.5 5.02e+000  -2.5 8.00e-001 9.98e-001h  1
  38 4.4394113e+001 4.66e+001 7.94e-001  -8.5 1.32e+001  -3.0 2.44e-001 3.62e-001f  1
  39 4.0510696e+001 3.25e+001 3.67e-001  -3.0 3.89e+000  -2.5 8.10e-001 9.97e-001h  1
iter    objective    inf_pr   inf_du lg(mu)  ||d||  lg(rg) alpha_du alpha_pr  ls
  40 3.9406166e+001 8.59e+000 2.77e-001  -3.0 1.11e+000  -2.1 1.00e+000 9.98e-001h  1
  41 3.8379568e+001 6.20e+000 2.78e-001  -3.6 3.64e+000  -2.6 9.99e-001 2.82e-001f  1
  42 3.6134057e+001 4.58e+000 7.87e-001  -4.0 8.37e+000  -3.1 1.00e+000 2.68e-001f  1
  43 3.5361096e+001 3.51e+000 1.18e+000  -4.1 3.26e+000  -2.6 1.00e+000 2.37e-001h  1
  44 3.3582507e+001 2.69e+000 2.11e-001  -4.3 7.52e+000  -3.1 1.00e+000 2.37e-001f  1
  45 3.2668802e+001 1.86e+000 1.70e-001  -4.4 2.93e+000  -2.7 1.00e+000 3.12e-001h  1
  46 3.1498150e+001 1.54e+000 1.29e-001  -4.6 7.03e+000  -3.2 1.00e+000 1.73e-001f  1
  47 3.0585466e+001 1.02e+000 5.16e-002  -4.6 2.68e+000  -2.7 1.00e+000 3.40e-001h  1
  48 2.9546963e+001 8.52e-001 2.90e-001  -4.6 6.68e+000  -3.2 1.00e+000 1.67e-001f  1
  49 2.9030374e+001 6.72e-001 5.13e-002  -4.6 2.58e+000  -2.8 1.00e+000 2.11e-001h  1
iter    objective    inf_pr   inf_du lg(mu)  ||d||  lg(rg) alpha_du alpha_pr  ls
  50 2.8253588e+001 5.84e-001 3.59e-001  -5.0 6.66e+000  -3.3 1.00e+000 1.31e-001f  1
  51 2.7749619e+001 4.58e-001 1.10e-001  -4.4 2.53e+000  -2.8 1.00e+000 2.15e-001h  1
  52 2.6894292e+001 3.93e-001 3.94e-001  -4.6 6.27e+000  -3.3 9.97e-001 1.51e-001f  1
  53 2.6481408e+001 3.22e-001 8.29e-002  -4.6 2.45e+000  -2.9 1.00e+000 1.84e-001h  1
  54 2.5537915e+001 3.38e-001 3.69e-001  -4.6 6.74e+000  -3.4 9.80e-001 1.72e-001f  1
  55 2.5075649e+001 3.11e-001 1.10e-001  -4.6 2.67e+000  -2.9 1.00e+000 2.14e-001h  1
  56 2.4296055e+001 3.79e-001 4.69e-001  -4.3 7.30e+000  -3.4 1.00e+000 1.50e-001f  1
  57 2.3269273e+001 1.03e+000 1.11e-001  -4.3 2.90e+000  -3.0 1.00e+000 5.00e-001h  1
  58 2.2193806e+001 6.20e+000 3.29e-001  -2.9 7.26e+000  -3.5 2.59e-001 4.05e-001f  1
  59 2.1471130e+001 1.28e+000 2.10e-001  -2.9 4.35e+000  -3.0 6.62e-001 8.05e-001h  1
iter    objective    inf_pr   inf_du lg(mu)  ||d||  lg(rg) alpha_du alpha_pr  ls
  60 2.0007773e+001 1.18e+000 1.26e-001  -3.3 7.18e+000  -3.5 9.38e-001 3.91e-001f  1
  61 1.9347339e+001 8.52e-001 2.85e-001  -3.9 2.65e+000  -3.1 1.00e+000 3.60e-001h  1
  62 1.8507137e+001 7.23e+000 1.60e-001  -3.9 6.53e+000  -3.6 1.00e+000 2.31e-001h  1
  63 1.7556097e+001 1.50e+000 1.89e-002  -3.4 2.38e+000  -3.1 9.65e-001 8.25e-001h  1
  64 1.6400731e+001 1.78e+000 5.12e-002  -3.8 6.17e+000  -3.6 8.67e-001 4.14e-001h  1
  65 1.6448478e+001 3.33e+000 1.21e-001  -3.0 2.49e+000  -3.2 6.65e-001 8.19e-001h  1
  66 1.5367425e+001 1.87e+000 1.62e-001  -3.4 5.67e+000  -3.7 1.00e+000 4.65e-001h  1
  67 1.4527178e+001 4.96e+000 1.79e-002  -3.4 2.16e+000  -3.2 1.00e+000 9.28e-001h  1
  68 1.4166891e+001 4.50e+000 9.98e-003  -3.8 8.28e-001  -2.8 1.00e+000 8.87e-001h  1
  69 1.3926338e+001 1.28e+001 2.35e-002  -3.8 2.47e+000  -3.3 1.00e+000 2.95e-001h  1
iter    objective    inf_pr   inf_du lg(mu)  ||d||  lg(rg) alpha_du alpha_pr  ls
  70 1.4102321e+001 2.14e+001 2.24e-001  -2.9 5.05e+000  -3.8 3.60e-001 6.24e-001f  1
  71 1.3907528e+001 2.53e+001 2.86e-001  -3.4 4.07e+000  -3.4 1.00e+000 2.12e-001h  1
  72 1.3227436e+001 1.21e+001 9.87e-002  -3.1 4.87e+000  -3.8 1.00e+000 6.47e-001h  1
  73 1.3229057e+001 9.96e+000 6.71e-002  -2.8 8.33e+000  -4.3 1.00e+000 7.14e-001h  1
  74 1.3200387e+001 2.72e+001 1.95e-001  -2.9 2.37e+000  -3.0 4.55e-001 4.51e-001h  1
  75 1.2063490e+001 5.75e+000 6.85e-002  -3.5 1.46e+000  -3.5 9.96e-001 1.00e+000h  1
  76 1.4185855e+001 1.39e+002 3.90e+000  -2.7 8.99e+000  -3.9 1.37e-001 1.00e+000f  1
  77 1.4210211e+001 1.24e+002 3.49e+000  -3.3 2.01e+000  -1.7 5.14e-001 1.08e-001h  1
  78 1.4181004e+001 8.53e+001 5.06e+000  -3.3 3.54e+000  -2.2 7.96e-001 3.14e-001h  1
  79 1.4213143e+001 5.21e+001 3.23e+000  -3.3 3.61e+000  -1.7 1.00e+000 3.81e-001h  1
iter    objective    inf_pr   inf_du lg(mu)  ||d||  lg(rg) alpha_du alpha_pr  ls
  80 1.4245181e+001 3.64e+001 3.28e+000  -3.3 1.22e+000  -1.3 8.09e-001 2.91e-001h  1
  81 1.4199678e+001 1.79e+002 1.39e+002  -3.3 5.47e+000  -1.8 1.55e-002 9.38e-001h  1
  82 1.4180566e+001 1.40e+002 1.07e+002  -3.3 1.38e+001  -1.4 9.59e-003 2.16e-001h  1
  83 1.4183361e+001 1.08e+002 8.23e+001  -3.3 8.94e-001  -0.0 1.67e-001 2.30e-001h  1
  84 1.4184689e+001 4.15e+001 5.75e+001  -3.3 3.09e+000  -0.5 1.94e-001 7.52e-001h  1
  85 1.4186147e+001 3.24e+001 5.55e+001  -3.3 4.20e-001  -0.1 9.69e-001 2.20e-001f  3
  86 1.4191573e+001 9.81e-001 8.21e-001  -3.3 1.17e-001   0.3 9.70e-001 1.00e+000h  1
  87 1.4186080e+001 2.63e-003 2.13e-002  -5.0 9.71e-003  -0.1 1.00e+000 1.00e+000h  1
  88 1.4169432e+001 1.18e-002 7.10e-003  -6.6 3.00e-002  -0.6 1.00e+000 9.72e-001h  1
  89 1.4156137e+001 1.45e-002 6.73e-003  -7.9 7.38e-002  -1.1 1.00e+000 2.77e-001h  1
iter    objective    inf_pr   inf_du lg(mu)  ||d||  lg(rg) alpha_du alpha_pr  ls
  90 1.4131573e+001 2.45e-002 6.17e-003  -8.6 2.00e-001  -1.6 1.00e+000 1.88e-001f  1
  91 1.4107425e+001 2.66e-002 7.48e-003  -8.8 5.26e-001  -2.1 1.00e+000 6.94e-002f  1
  92 1.4089971e+001 2.58e-002 9.20e-003  -8.0 2.10e-001  -1.6 1.00e+000 1.34e-001h  1
  93 1.4053503e+001 2.77e-002 8.08e-003  -8.2 5.66e-001  -2.1 1.00e+000 1.01e-001f  1
  94 1.4042081e+001 2.64e-002 7.83e-003  -7.5 2.09e-001  -1.7 1.00e+000 8.29e-002h  1
  95 1.4019688e+001 2.63e-002 7.38e-003  -7.7 6.10e-001  -2.2 1.00e+000 5.98e-002h  1
  96 1.4005250e+001 2.52e-002 7.15e-003  -7.6 2.31e-001  -1.7 1.00e+000 9.98e-002h  1
  97 1.3978507e+001 2.51e-002 6.51e-003  -7.7 6.89e-001  -2.2 1.00e+000 6.71e-002f  1
  98 1.3948960e+001 2.56e-002 5.84e-003  -7.7 2.61e-001  -1.8 1.00e+000 1.90e-001h  1
  99 1.3917725e+001 2.55e-002 4.81e-003  -7.8 7.83e-001  -2.3 1.00e+000 7.42e-002h  1
iter    objective    inf_pr   inf_du lg(mu)  ||d||  lg(rg) alpha_du alpha_pr  ls
 100 1.3903098e+001 2.44e-002 4.90e-003  -6.8 2.94e-001  -1.8 1.00e+000 8.94e-002h  1
 101 1.3869198e+001 2.48e-002 4.07e-003  -7.0 8.84e-001  -2.3 1.00e+000 7.56e-002h  1
 102 1.3855662e+001 2.46e-002 4.15e-003  -7.0 3.07e-001  -1.9 1.00e+000 7.80e-002h  1
 103 1.3805809e+001 3.73e-002 5.02e-003  -7.1 9.01e-001  -2.4 1.00e+000 1.06e-001f  1
 104 1.3782953e+001 3.76e-002 4.37e-003  -6.6 3.35e-001  -1.9 1.00e+000 1.24e-001h  1
 105 1.3736551e+001 4.55e-002 4.06e-003  -6.8 1.00e+000  -2.4 1.00e+000 9.34e-002h  1
 106 1.3708024e+001 4.70e-002 3.95e-003  -6.5 3.70e-001  -2.0 1.00e+000 1.47e-001h  1
 107 1.3655660e+001 6.03e-002 3.93e-003  -6.7 1.10e+000  -2.5 1.00e+000 1.02e-001h  1
 108 1.3619542e+001 6.48e-002 3.89e-003  -6.0 4.05e-001  -2.0 1.00e+000 1.81e-001h  1
 109 1.3564080e+001 8.80e-002 3.86e-003  -6.2 1.18e+000  -2.5 1.00e+000 1.06e-001h  1
iter    objective    inf_pr   inf_du lg(mu)  ||d||  lg(rg) alpha_du alpha_pr  ls
 110 1.3529100e+001 9.29e-002 3.80e-003  -5.8 4.36e-001  -2.1 1.00e+000 1.71e-001h  1
 111 1.3469424e+001 1.07e-001 2.52e-002  -6.1 1.30e+000  -2.6 1.00e+000 1.11e-001h  1
 112 1.3366947e+001 2.21e+000 2.69e-001  -5.6 7.62e+000  -3.0 1.00e+000 7.90e-002f  1
 113 1.3197937e+001 1.25e+000 2.10e-001  -3.7 1.29e+000  -2.6 1.00e+000 4.34e-001f  1
 114 1.2820062e+001 1.01e+000 5.79e-002  -3.8 3.80e+000  -3.1 9.84e-001 4.41e-001h  1
 115 1.2658008e+001 1.33e+000 5.74e-002  -3.5 2.69e+000  -3.6 9.33e-001 1.37e-001h  1
 116 1.2304784e+001 1.36e+000 1.10e-001  -3.2 7.18e+000  -4.1 1.00e+000 2.50e-001h  1
 117 1.1319836e+001 4.95e+000 9.08e-002  -3.7 1.94e+000  -3.6 1.00e+000 1.00e+000h  1
 118 1.0852742e+001 9.50e+000 2.55e-002  -3.4 4.00e+000  -4.1 1.00e+000 8.25e-001h  1
 119 1.0339076e+001 1.06e+001 1.38e-002  -3.9 1.54e+000  -3.7 9.58e-001 9.98e-001h  1
iter    objective    inf_pr   inf_du lg(mu)  ||d||  lg(rg) alpha_du alpha_pr  ls
 120 1.0171835e+001 1.05e+001 5.79e-003  -4.2 6.38e-001  -3.3 1.00e+000 1.00e+000h  1
 121 9.9654107e+000 1.70e+000 5.14e-003  -3.9 1.50e+000  -3.7 1.00e+000 1.00e+000h  1
 122 9.8383745e+000 4.62e+001 3.34e-003  -3.5 2.77e+000  -4.2 1.00e+000 9.49e-001h  1
 123 1.0399953e+001 2.94e+001 2.58e-002  -3.1 4.40e+000  -4.7 1.00e+000 8.64e-001h  1
 124 1.0253132e+001 4.89e+000 6.39e-003  -3.2 1.58e+000  -4.3 1.00e+000 1.00e+000h  1
 125 9.1220175e+000 3.46e+001 3.35e-002  -3.6 5.07e+000  -4.7 8.16e-001 9.94e-001h  1
 126 8.9869508e+000 3.87e+000 2.33e-002  -4.1 2.50e+000  -3.4 9.83e-001 1.00e+000h  1
 127 9.1266096e+000 1.07e+001 1.75e-002  -3.5 4.69e+000  -3.9 1.00e+000 9.17e-001h  1
 128 8.3925243e+000 4.50e+000 4.54e-002  -3.6 2.90e+001    -  8.25e-001 4.22e-001h  1
 129 7.0971778e+000 1.36e+001 3.71e-002  -3.6 2.04e+001    -  7.62e-001 9.98e-001h  1
iter    objective    inf_pr   inf_du lg(mu)  ||d||  lg(rg) alpha_du alpha_pr  ls
 130 7.0276417e+000 1.68e+001 2.29e-002  -3.8 3.36e+000  -4.4 1.00e+000 1.00e+000h  1
 131 6.8743294e+000 2.51e+000 4.82e-001  -3.8 1.43e+000  -4.8 7.81e-002 1.00e+000h  1
 132 6.7423694e+000 4.22e+000 5.66e-002  -4.2 4.40e-001  -3.5 1.00e+000 9.93e-001h  1
 133 6.6938209e+000 6.80e-001 4.28e-003  -4.0 4.46e-001  -4.0 1.00e+000 1.00e+000h  1
 134 6.2886767e+000 1.58e+001 1.18e-002  -4.7 2.11e+000  -4.5 7.13e-001 9.97e-001h  1
 135 6.0872881e+000 2.17e+001 1.80e-002  -4.1 2.98e+000  -4.9 1.00e+000 1.00e+000h  1
 136 6.2447823e+000 1.88e+000 1.67e-003  -3.8 1.30e+000  -4.5 1.00e+000 1.00e+000h  1
 137 6.0421164e+000 2.65e+000 1.13e-003  -4.3 8.42e-001  -4.1 9.92e-001 1.00e+000h  1
 138 5.9467289e+000 5.91e+000 6.21e-004  -4.9 4.34e-001  -3.7 1.00e+000 1.00e+000h  1
 139 5.9101838e+000 7.72e-001 1.93e-004  -5.5 2.06e-001  -3.2 1.00e+000 1.00e+000h  1
iter    objective    inf_pr   inf_du lg(mu)  ||d||  lg(rg) alpha_du alpha_pr  ls
 140 5.8825906e+000 1.33e+000 1.24e-003  -4.6 5.61e-001  -3.7 1.00e+000 1.00e+000h  1
 141 5.8320856e+000 2.97e-001 2.46e-003  -4.3 9.38e-001  -4.2 1.00e+000 1.00e+000h  1
 142 5.7632058e+000 7.15e+000 2.37e-003  -4.7 8.71e-001  -3.8 1.00e+000 9.92e-001h  1
 143 5.7794371e+000 3.64e+000 4.61e-002  -4.2 8.47e-001  -4.2 2.99e-001 1.00e+000h  1
 144 5.7536215e+000 1.60e+000 3.43e-002  -4.6 3.63e-001  -2.9 5.96e-001 1.00e+000h  1
 145 5.7354915e+000 4.44e-001 4.96e-003  -5.3 2.18e-001  -2.5 1.00e+000 1.00e+000h  1
 146 5.7096515e+000 1.24e-001 2.11e-003  -5.0 1.42e-001  -3.0 1.00e+000 9.68e-001h  1
 147 5.8479548e+000 2.24e+000 4.09e-002  -3.3 4.76e+000  -3.4 2.48e-001 1.70e-001f  1
 148 5.8615016e+000 2.38e+000 9.40e-004  -4.0 3.28e-001  -3.9 1.00e+000 1.00e+000h  1
 149 5.6941081e+000 1.39e+000 9.55e-003  -4.0 1.70e+001    -  9.30e-001 4.21e-001h  1
iter    objective    inf_pr   inf_du lg(mu)  ||d||  lg(rg) alpha_du alpha_pr  ls
 150 5.0865463e+000 4.10e+000 3.22e-003  -4.2 1.32e+001    -  1.00e+000 1.00e+000h  1
 151 4.8200578e+000 5.21e+000 5.02e-003  -4.3 8.30e+000    -  1.00e+000 1.00e+000h  1
 152 5.3218861e+000 4.62e+000 4.17e-003  -4.1 1.22e+001    -  1.00e+000 9.29e-001h  1
 153 5.3162077e+000 4.49e-001 1.47e-003  -4.2 3.93e+000  -4.4 1.00e+000 1.00e+000h  1
 154 4.9590720e+000 1.90e+000 2.71e-003  -4.2 8.55e+000    -  9.92e-001 1.00e+000h  1
 155 4.8252105e+000 6.71e-001 1.81e-003  -4.3 9.15e+000    -  1.00e+000 1.00e+000h  1
 156 4.5233762e+000 3.89e+000 1.38e-003  -4.6 7.73e+000    -  9.40e-001 1.00e+000h  1
 157 4.5047245e+000 8.95e-001 1.61e-003  -4.6 4.89e+000    -  1.00e+000 1.00e+000h  1
 158 4.3269445e+000 1.70e+000 2.70e-004  -4.9 9.53e+000    -  1.00e+000 1.00e+000h  1
 159 4.2934750e+000 3.51e+000 7.80e-004  -5.0 1.20e+001    -  1.00e+000 1.00e+000h  1
iter    objective    inf_pr   inf_du lg(mu)  ||d||  lg(rg) alpha_du alpha_pr  ls
 160 4.4081814e+000 9.43e+000 2.34e-003  -4.7 4.58e+001    -  7.53e-001 9.53e-001h  1
 161 4.3835175e+000 5.88e-001 4.95e-004  -4.9 1.45e+000  -4.9 1.00e+000 1.00e+000h  1
 162 4.2945178e+000 3.61e-001 1.14e-003  -5.2 2.10e+000  -5.3 8.47e-001 1.00e+000h  1
 163 4.2789177e+000 1.23e-001 4.43e-004  -5.2 1.14e+000  -4.9 1.00e+000 1.00e+000h  1
 164 4.3405539e+000 3.32e+000 5.08e-003  -4.8 1.33e+001    -  3.50e-001 7.96e-001h  1
 165 4.3133053e+000 3.23e+000 4.09e-003  -5.1 3.75e+001    -  4.99e-001 2.69e-001h  1
 166 4.2472478e+000 3.00e+000 3.99e-004  -5.1 2.58e+001    -  1.00e+000 1.00e+000h  1
 167 4.2078603e+000 5.40e-001 3.45e-004  -5.5 1.13e+000  -5.4 1.00e+000 1.00e+000h  1
 168 4.2277333e+000 3.31e-001 3.82e-005  -5.3 1.59e+000  -5.9 1.00e+000 1.00e+000h  1
 169 4.2193492e+000 4.64e+000 1.10e-004  -5.3 5.61e+000  -6.4 1.00e+000 1.00e+000h  1
iter    objective    inf_pr   inf_du lg(mu)  ||d||  lg(rg) alpha_du alpha_pr  ls
 170 4.2534824e+000 6.10e-001 9.50e-005  -5.0 1.76e+000  -5.0 1.00e+000 1.00e+000h  1
 171 4.2466277e+000 1.67e-001 1.12e-005  -5.1 1.41e-001  -4.6 1.00e+000 1.00e+000h  1
 172 4.2118232e+000 3.55e+000 3.00e-004  -5.5 6.29e-001  -5.1 9.85e-001 1.00e+000h  1
 173 4.2015734e+000 6.16e-001 2.69e-004  -6.0 1.69e-001  -3.7 1.00e+000 1.00e+000h  1
 174 4.1994723e+000 1.97e+000 2.29e-005  -5.7 2.29e-001  -4.2 1.00e+000 1.00e+000h  1
 175 4.1927604e+000 4.86e-001 3.31e-005  -5.7 4.21e-001  -4.7 1.00e+000 1.00e+000h  1
 176 4.2107316e+000 1.71e+000 7.67e-005  -5.4 5.80e-001  -5.2 1.00e+000 1.00e+000h  1
 177 4.2059540e+000 1.83e+001 1.29e-003  -5.5 2.32e+000  -5.7 6.36e-001 4.92e-001h  1
 178 4.2036286e+000 1.25e+001 1.33e-003  -5.5 2.11e+001  -6.1 4.19e-002 3.18e-001h  1
 179 4.1993128e+000 4.88e+000 1.35e-003  -5.5 7.75e+000    -  1.00e+000 6.52e-001h  1
iter    objective    inf_pr   inf_du lg(mu)  ||d||  lg(rg) alpha_du alpha_pr  ls
 180 4.1988514e+000 3.81e+000 8.51e-004  -5.5 1.59e+001  -6.6 9.97e-001 2.22e-001h  1
 181 4.1972877e+000 6.55e-001 1.91e-004  -5.5 7.36e+000    -  6.65e-001 9.44e-001h  1
 182 4.1913328e+000 1.72e+000 1.27e-004  -5.5 3.32e+000    -  1.00e+000 1.00e+000h  1
 183 4.1885046e+000 5.34e-001 8.46e-005  -5.5 3.60e+000    -  1.00e+000 1.00e+000h  1
 184 4.1764717e+000 2.90e-001 6.10e-004  -5.7 2.89e+000    -  1.00e+000 1.00e+000h  1
 185 4.1705417e+000 3.71e-001 6.35e-004  -5.8 1.70e+000    -  1.00e+000 1.00e+000h  1
 186 4.1639407e+000 5.18e-001 1.16e-004  -6.0 2.04e+000    -  1.00e+000 1.00e+000h  1
 187 4.1622126e+000 1.06e+000 4.91e-005  -6.1 2.81e+000    -  1.00e+000 1.00e+000h  1
 188 4.1622131e+000 7.48e-001 8.81e-004  -6.1 3.24e+000    -  5.32e-001 4.89e-001h  1
 189 4.1606053e+000 2.65e-001 1.76e-004  -6.2 9.61e-001    -  1.00e+000 1.00e+000h  1
iter    objective    inf_pr   inf_du lg(mu)  ||d||  lg(rg) alpha_du alpha_pr  ls
 190 4.1573314e+000 1.99e-001 6.70e-005  -6.4 1.58e+000    -  1.00e+000 1.00e+000h  1
 191 4.1566967e+000 7.50e-002 1.02e-004  -6.5 7.69e-001    -  1.00e+000 1.00e+000h  1
 192 4.1551012e+000 9.81e-002 2.25e-005  -6.7 5.65e-001  -6.2 1.00e+000 1.00e+000h  1
 193 4.1576707e+000 7.83e-001 4.42e-003  -6.4 6.38e-001  -6.7 7.11e-001 1.00e+000h  1
 194 4.1573749e+000 6.35e-001 4.15e-003  -6.5 4.66e+000  -7.1 3.00e-001 2.01e-001h  1
 195 4.1561994e+000 2.01e-001 2.06e-005  -6.5 4.83e-001    -  1.00e+000 1.00e+000h  1
 196 4.1562132e+000 3.82e-002 2.24e-005  -6.5 1.88e-001    -  1.00e+000 1.00e+000h  1
 197 4.1546560e+000 2.88e-001 3.51e-004  -6.8 1.24e+000    -  9.19e-001 1.00e+000h  1
 198 4.1544285e+000 4.96e-002 3.41e-005  -6.9 4.84e-001    -  1.00e+000 1.00e+000h  1
 199 4.1536894e+000 6.15e-002 8.21e-006  -7.2 9.68e-001    -  1.00e+000 1.00e+000h  1
iter    objective    inf_pr   inf_du lg(mu)  ||d||  lg(rg) alpha_du alpha_pr  ls
 200 4.1534461e+000 3.91e-002 9.26e-006  -7.5 6.26e-001    -  1.00e+000 1.00e+000h  1
 201 4.1532356e+000 1.78e-002 8.95e-006  -7.9 5.94e-001    -  1.00e+000 1.00e+000h  1
 202 4.1531771e+000 1.15e-002 6.78e-007  -8.1 3.36e-001    -  1.00e+000 1.00e+000h  1
 203 4.1531351e+000 1.60e-003 6.73e-005  -8.5 2.57e-001    -  8.43e-001 1.00e+000h  1
 204 4.1531226e+000 3.03e-004 8.69e-008  -8.7 1.32e-001    -  1.00e+000 1.00e+000h  1
 205 4.1531103e+000 2.96e-004 2.75e-006  -9.1 1.32e-001    -  9.88e-001 1.00e+000h  1
 206 4.1531058e+000 8.00e-005 1.02e-007  -9.4 1.02e-001    -  1.00e+000 1.00e+000h  1
 207 4.1531052e+000 9.67e-006 5.78e-009  -9.5 3.33e-002    -  1.00e+000 1.00e+000h  1
 208 4.1531038e+000 8.70e-006 6.90e-009  -9.7 3.43e-002    -  1.00e+000 1.00e+000h  1
 209 4.1531029e+000 5.94e-006 3.51e-009 -10.1 3.23e-002    -  1.00e+000 1.00e+000h  1
iter    objective    inf_pr   inf_du lg(mu)  ||d||  lg(rg) alpha_du alpha_pr  ls
 210 4.1531023e+000 7.14e-006 1.66e-003 -10.6 3.09e-002    -  7.80e-001 1.00e+000h  1
 211 4.1531022e+000 1.28e-006 3.99e-010 -11.0 1.74e-002    -  1.00e+000 1.00e+000h  1

Number of Iterations....: 211

                                   (scaled)                 (unscaled)
Objective...............:  4.1531021946096560e+000   4.1531021946096560e+000
Dual infeasibility......:  3.9865641485631490e-010   3.9865641485631490e-010
Constraint violation....:  3.3923876254874349e-007   1.2835759992668727e-006
Complementarity.........:  2.5733818582284391e-011   2.5733818582284391e-011
Overall NLP error.......:  3.3923876254874349e-007   1.2835759992668727e-006


Number of objective function evaluations             = 214
Number of objective gradient evaluations             = 212
Number of equality constraint evaluations            = 214
Number of inequality constraint evaluations          = 214
Number of equality constraint Jacobian evaluations   = 212
Number of inequality constraint Jacobian evaluations = 212
Number of Lagrangian Hessian evaluations             = 211
Total CPU secs in IPOPT (w/o function evaluations)   =    257.692
Total CPU secs in NLP function evaluations           =     21.912

EXIT: Optimal Solution Found.
